************************************************************************
file with basedata            : mm30_.bas
initial value random generator: 1769258131
************************************************************************
projects                      :  1
jobs (incl. supersource/sink ):  12
horizon                       :  76
RESOURCES
  - renewable                 :  2   R
  - nonrenewable              :  2   N
  - doubly constrained        :  0   D
************************************************************************
PROJECT INFORMATION:
pronr.  #jobs rel.date duedate tardcost  MPM-Time
    1     10      0       14        1       14
************************************************************************
PRECEDENCE RELATIONS:
jobnr.    #modes  #successors   successors
   0        1          3           1   2   3
   1        3          3           4   6   8
   2        3          2           5   6
   3        3          2           9  10
   4        3          2           5   9
   5        3          1           7
   6        3          1          10
   7        3          1          10
   8        3          1          11
   9        3          1          11
  10        3          1          11
  11        1          0        
************************************************************************
REQUESTS/DURATIONS:
jobnr. mode duration  R 1  R 2  R 3  R 4  E(W 1)  E(W 2)
------------------------------------------------------------------------
  0      1     0       0    0    0    0     0       0
  1      1     2       3    0    9    6     6      30
  2      1     2       0    7    5    3    14      16
  3      1     1      10    0   10   10    10      20
  4      1     3       7    0    3    4    21      21
  5      1     3       0    2    3    7     6      30
  6      1     1       8    0    6    6     8      12
  7      1     1       0    9    6    6     9      12
  8      1     3       0    8    5    2    24      21
  9      1     1       4    0    5    9     4      14
 10      1     5       2    0    5    9    10      70
 11      1     0       0    0    0    0     0       0
************************************************************************
RESOURCEAVAILABILITIES:
  R 1  R 2
   36   99
************************************************************************
RESOURCE LIMITS:
jobnr.  l(R 1)  u(R 1)  l(R 2)  u(R 2)
------------------------------------------------------------------------
  0        0       0       0       0
  1        2       3       8      15
  2        4       7       5       8
  3        5      10      10      20
  4        4       7       4       7
  5        1       2       6      10
  6        4       8       6      12
  7        5       9       6      12
  8        4       8       4       7
  9        2       4       8      14
 10        1       2       8      14
 11        0       0       0       0
************************************************************************
SCENARIOS:
------------------------------------------------------------------------
RESOURCE k = 1
s = 1: (0, 4, 12, 8, 26, 8, 13, 7, 34, 5, 13, 0)
s = 2: (0, 9, 13, 11, 29, 6, 10, 7, 18, 4, 14, 0)
s = 3: (0, 8, 12, 8, 13, 7, 10, 9, 26, 5, 14, 0)
s = 4: (0, 7, 19, 12, 19, 8, 7, 7, 31, 5, 7, 0)
s = 5: (0, 6, 11, 12, 30, 7, 9, 8, 28, 4, 13, 0)
s = 6: (0, 8, 9, 11, 16, 5, 6, 9, 23, 5, 12, 0)
s = 7: (0, 5, 15, 10, 29, 8, 9, 8, 31, 4, 15, 0)
s = 8: (0, 7, 15, 10, 19, 4, 5, 10, 15, 4, 11, 0)
s = 9: (0, 6, 11, 11, 15, 5, 14, 10, 28, 3, 12, 0)
s = 10: (0, 5, 8, 16, 15, 7, 8, 6, 21, 3, 7, 0)
s = 11: (0, 4, 11, 11, 12, 6, 14, 10, 23, 3, 9, 0)
s = 12: (0, 11, 14, 7, 27, 9, 6, 11, 20, 7, 10, 0)
s = 13: (0, 8, 14, 8, 27, 7, 12, 10, 44, 4, 7, 0)
s = 14: (0, 5, 13, 14, 29, 10, 7, 12, 20, 6, 10, 0)
s = 15: (0, 5, 16, 6, 16, 5, 9, 9, 17, 3, 14, 0)
s = 16: (0, 8, 15, 11, 19, 8, 7, 9, 32, 5, 9, 0)
s = 17: (0, 5, 10, 7, 21, 6, 12, 8, 16, 6, 10, 0)
s = 18: (0, 7, 14, 10, 17, 5, 8, 10, 27, 6, 14, 0)
s = 19: (0, 5, 14, 15, 20, 5, 8, 6, 24, 3, 16, 0)
s = 20: (0, 6, 22, 6, 21, 7, 8, 13, 20, 7, 12, 0)
s = 21: (0, 11, 9, 10, 15, 5, 7, 9, 24, 5, 10, 0)
s = 22: (0, 6, 14, 9, 20, 6, 9, 10, 26, 4, 16, 0)
s = 23: (0, 7, 16, 10, 29, 6, 7, 7, 22, 4, 11, 0)
s = 24: (0, 7, 11, 11, 22, 7, 8, 7, 15, 4, 15, 0)
s = 25: (0, 10, 11, 10, 16, 6, 10, 9, 30, 4, 6, 0)
s = 26: (0, 4, 17, 6, 15, 6, 7, 6, 21, 3, 8, 0)
s = 27: (0, 5, 21, 12, 25, 5, 13, 8, 19, 5, 7, 0)
s = 28: (0, 6, 11, 7, 23, 6, 9, 8, 18, 4, 8, 0)
s = 29: (0, 6, 13, 13, 20, 7, 7, 14, 24, 4, 9, 0)
s = 30: (0, 6, 10, 7, 22, 7, 10, 12, 22, 3, 7, 0)
s = 31: (0, 7, 17, 12, 21, 6, 12, 6, 18, 5, 8, 0)
s = 32: (0, 9, 14, 13, 24, 5, 12, 10, 19, 3, 15, 0)
s = 33: (0, 5, 16, 9, 24, 8, 10, 11, 24, 5, 9, 0)
s = 34: (0, 9, 11, 13, 21, 6, 14, 8, 21, 3, 7, 0)
s = 35: (0, 6, 16, 8, 27, 7, 6, 8, 17, 5, 12, 0)
s = 36: (0, 8, 14, 15, 18, 5, 10, 12, 22, 5, 11, 0)
s = 37: (0, 6, 17, 11, 28, 4, 8, 10, 26, 4, 8, 0)
s = 38: (0, 5, 14, 11, 18, 4, 7, 7, 19, 5, 10, 0)
s = 39: (0, 4, 9, 6, 23, 6, 5, 12, 13, 5, 7, 0)
s = 40: (0, 8, 19, 10, 33, 4, 12, 10, 33, 4, 7, 0)
s = 41: (0, 8, 11, 15, 19, 5, 7, 12, 24, 4, 12, 0)
s = 42: (0, 7, 20, 15, 17, 5, 9, 9, 16, 5, 18, 0)
s = 43: (0, 9, 12, 9, 16, 7, 10, 10, 15, 3, 13, 0)
s = 44: (0, 5, 10, 7, 20, 6, 6, 11, 17, 5, 6, 0)
s = 45: (0, 8, 23, 14, 19, 8, 6, 8, 19, 6, 10, 0)
s = 46: (0, 5, 16, 10, 24, 6, 9, 13, 33, 3, 6, 0)
s = 47: (0, 9, 15, 7, 17, 6, 11, 10, 18, 3, 11, 0)
s = 48: (0, 7, 19, 11, 28, 7, 6, 13, 26, 3, 11, 0)
s = 49: (0, 7, 15, 9, 33, 5, 7, 11, 25, 3, 11, 0)
s = 50: (0, 8, 11, 9, 32, 9, 11, 10, 34, 3, 6, 0)
s = 51: (0, 10, 11, 11, 24, 5, 11, 6, 18, 4, 13, 0)
s = 52: (0, 7, 10, 14, 25, 7, 6, 8, 37, 5, 10, 0)
s = 53: (0, 9, 14, 13, 16, 4, 11, 9, 20, 3, 12, 0)
s = 54: (0, 5, 10, 9, 18, 8, 7, 10, 24, 4, 16, 0)
s = 55: (0, 9, 18, 8, 18, 6, 10, 11, 40, 3, 9, 0)
s = 56: (0, 6, 18, 11, 23, 4, 5, 7, 16, 3, 7, 0)
s = 57: (0, 6, 12, 6, 16, 5, 10, 9, 20, 3, 15, 0)
s = 58: (0, 6, 16, 12, 12, 5, 9, 9, 21, 3, 9, 0)
s = 59: (0, 7, 9, 8, 21, 4, 7, 8, 36, 6, 13, 0)
s = 60: (0, 7, 12, 6, 17, 8, 6, 9, 17, 4, 8, 0)
s = 61: (0, 10, 16, 8, 29, 10, 8, 10, 34, 4, 7, 0)
s = 62: (0, 5, 10, 7, 13, 5, 9, 11, 30, 3, 8, 0)
s = 63: (0, 7, 13, 11, 17, 5, 9, 8, 32, 7, 9, 0)
s = 64: (0, 8, 15, 11, 23, 7, 9, 11, 32, 5, 13, 0)
s = 65: (0, 6, 10, 10, 27, 8, 6, 8, 26, 5, 12, 0)
s = 66: (0, 7, 18, 11, 24, 5, 7, 9, 20, 5, 8, 0)
s = 67: (0, 5, 13, 13, 23, 7, 10, 8, 14, 5, 17, 0)
s = 68: (0, 9, 16, 9, 27, 7, 7, 6, 18, 3, 8, 0)
s = 69: (0, 7, 24, 16, 23, 6, 14, 8, 26, 4, 19, 0)
s = 70: (0, 6, 19, 9, 20, 6, 11, 9, 21, 5, 16, 0)
s = 71: (0, 6, 10, 9, 23, 6, 9, 6, 20, 3, 10, 0)
s = 72: (0, 6, 15, 10, 19, 9, 7, 7, 30, 4, 16, 0)
s = 73: (0, 9, 12, 9, 22, 5, 12, 9, 26, 3, 8, 0)
s = 74: (0, 5, 19, 7, 34, 4, 5, 9, 17, 4, 12, 0)
s = 75: (0, 8, 24, 9, 31, 12, 10, 12, 14, 3, 9, 0)
s = 76: (0, 5, 16, 11, 29, 4, 14, 7, 17, 3, 17, 0)
s = 77: (0, 7, 8, 10, 22, 7, 10, 11, 28, 4, 10, 0)
s = 78: (0, 4, 20, 14, 18, 7, 8, 7, 37, 3, 7, 0)
s = 79: (0, 4, 19, 8, 15, 8, 9, 10, 36, 4, 8, 0)
s = 80: (0, 5, 10, 8, 21, 6, 6, 12, 33, 3, 7, 0)
s = 81: (0, 5, 13, 10, 26, 8, 8, 16, 22, 4, 10, 0)
s = 82: (0, 8, 20, 9, 22, 8, 11, 17, 29, 3, 10, 0)
s = 83: (0, 5, 12, 9, 15, 4, 7, 7, 32, 6, 10, 0)
s = 84: (0, 8, 14, 6, 18, 6, 8, 13, 25, 5, 13, 0)
s = 85: (0, 9, 14, 7, 28, 4, 6, 10, 21, 4, 13, 0)
s = 86: (0, 11, 12, 16, 27, 6, 5, 7, 19, 4, 8, 0)
s = 87: (0, 9, 11, 12, 20, 7, 7, 13, 14, 3, 13, 0)
s = 88: (0, 5, 13, 14, 18, 7, 11, 12, 20, 3, 12, 0)
s = 89: (0, 7, 12, 11, 21, 6, 5, 11, 17, 5, 19, 0)
s = 90: (0, 7, 17, 14, 22, 6, 10, 13, 34, 6, 9, 0)
s = 91: (0, 6, 12, 10, 26, 4, 9, 8, 18, 4, 14, 0)
s = 92: (0, 4, 23, 7, 18, 9, 10, 18, 28, 4, 9, 0)
s = 93: (0, 9, 16, 17, 13, 7, 6, 8, 24, 5, 8, 0)
s = 94: (0, 8, 16, 10, 13, 8, 6, 8, 31, 3, 9, 0)
s = 95: (0, 5, 13, 7, 24, 7, 9, 6, 27, 6, 11, 0)
s = 96: (0, 8, 9, 6, 28, 8, 9, 10, 29, 5, 10, 0)
s = 97: (0, 9, 16, 11, 31, 6, 11, 12, 21, 4, 10, 0)
s = 98: (0, 11, 11, 12, 27, 8, 14, 9, 23, 3, 9, 0)
s = 99: (0, 6, 14, 10, 31, 7, 10, 9, 16, 4, 13, 0)
s = 100: (0, 7, 11, 16, 15, 5, 8, 6, 29, 5, 11, 0)
s = 101: (0, 5, 10, 16, 28, 6, 7, 11, 22, 4, 14, 0)
s = 102: (0, 10, 12, 7, 26, 7, 7, 12, 17, 7, 10, 0)
s = 103: (0, 4, 10, 13, 19, 7, 14, 12, 18, 5, 8, 0)
s = 104: (0, 6, 12, 12, 14, 5, 9, 7, 38, 5, 7, 0)
s = 105: (0, 9, 11, 12, 23, 6, 7, 8, 15, 4, 11, 0)
s = 106: (0, 5, 10, 6, 35, 5, 7, 8, 32, 6, 12, 0)
s = 107: (0, 6, 9, 10, 17, 5, 6, 8, 28, 7, 10, 0)
s = 108: (0, 5, 19, 16, 14, 7, 5, 7, 21, 3, 13, 0)
s = 109: (0, 6, 12, 7, 20, 5, 7, 11, 17, 3, 13, 0)
s = 110: (0, 6, 15, 11, 22, 4, 5, 6, 28, 5, 8, 0)
s = 111: (0, 5, 15, 9, 22, 9, 5, 13, 17, 4, 15, 0)
s = 112: (0, 12, 22, 10, 29, 5, 9, 7, 33, 4, 14, 0)
s = 113: (0, 8, 13, 6, 16, 6, 9, 9, 15, 3, 8, 0)
s = 114: (0, 7, 10, 7, 25, 11, 10, 7, 25, 4, 16, 0)
s = 115: (0, 5, 13, 11, 20, 6, 6, 8, 28, 6, 14, 0)
s = 116: (0, 5, 13, 8, 21, 6, 7, 6, 19, 4, 8, 0)
s = 117: (0, 5, 13, 8, 16, 6, 7, 9, 22, 4, 9, 0)
s = 118: (0, 5, 17, 9, 19, 7, 8, 10, 23, 5, 12, 0)
s = 119: (0, 4, 11, 10, 17, 4, 11, 6, 18, 5, 8, 0)
s = 120: (0, 10, 13, 8, 24, 5, 10, 11, 33, 5, 13, 0)
s = 121: (0, 7, 19, 12, 24, 5, 13, 9, 21, 4, 14, 0)
s = 122: (0, 5, 13, 13, 23, 5, 5, 7, 28, 5, 9, 0)
s = 123: (0, 8, 14, 9, 16, 9, 10, 8, 27, 4, 18, 0)
s = 124: (0, 6, 8, 10, 17, 8, 7, 8, 41, 7, 9, 0)
s = 125: (0, 9, 23, 8, 30, 6, 11, 13, 33, 4, 12, 0)
s = 126: (0, 6, 11, 13, 20, 5, 11, 10, 17, 4, 7, 0)
s = 127: (0, 5, 11, 10, 20, 9, 6, 8, 21, 5, 9, 0)
s = 128: (0, 8, 19, 8, 29, 7, 6, 5, 24, 3, 10, 0)
s = 129: (0, 8, 10, 6, 22, 6, 8, 11, 29, 3, 15, 0)
s = 130: (0, 5, 18, 12, 13, 5, 5, 7, 23, 4, 17, 0)
s = 131: (0, 9, 10, 13, 16, 7, 9, 8, 16, 3, 9, 0)
s = 132: (0, 7, 17, 12, 20, 8, 5, 8, 20, 5, 13, 0)
s = 133: (0, 6, 18, 14, 20, 7, 11, 9, 42, 3, 7, 0)
s = 134: (0, 7, 13, 16, 26, 8, 5, 11, 27, 4, 7, 0)
s = 135: (0, 7, 17, 8, 22, 7, 8, 8, 29, 5, 14, 0)
s = 136: (0, 7, 9, 8, 30, 7, 5, 5, 26, 7, 7, 0)
s = 137: (0, 4, 17, 10, 25, 5, 11, 6, 19, 5, 13, 0)
s = 138: (0, 8, 15, 9, 15, 5, 9, 14, 27, 7, 12, 0)
s = 139: (0, 7, 10, 9, 33, 8, 10, 17, 34, 6, 13, 0)
s = 140: (0, 6, 20, 14, 23, 8, 10, 9, 25, 7, 16, 0)
s = 141: (0, 6, 11, 10, 22, 9, 8, 13, 22, 3, 11, 0)
s = 142: (0, 7, 9, 12, 23, 5, 8, 9, 38, 6, 9, 0)
s = 143: (0, 6, 14, 20, 13, 5, 8, 12, 29, 6, 11, 0)
s = 144: (0, 7, 13, 15, 31, 5, 7, 9, 30, 4, 9, 0)
s = 145: (0, 5, 16, 8, 25, 7, 5, 7, 19, 4, 9, 0)
s = 146: (0, 10, 17, 13, 12, 4, 7, 9, 14, 5, 7, 0)
s = 147: (0, 7, 15, 12, 15, 5, 8, 8, 31, 6, 10, 0)
s = 148: (0, 6, 14, 8, 29, 5, 5, 7, 26, 3, 11, 0)
s = 149: (0, 7, 8, 8, 16, 6, 10, 6, 22, 5, 6, 0)
s = 150: (0, 9, 17, 11, 20, 6, 8, 10, 17, 5, 10, 0)
s = 151: (0, 6, 13, 14, 15, 5, 9, 14, 24, 6, 11, 0)
s = 152: (0, 8, 19, 13, 21, 5, 11, 11, 29, 3, 9, 0)
s = 153: (0, 5, 18, 11, 13, 6, 9, 9, 29, 3, 7, 0)
s = 154: (0, 6, 19, 16, 27, 5, 8, 12, 19, 5, 15, 0)
s = 155: (0, 10, 19, 6, 27, 5, 8, 12, 22, 6, 10, 0)
s = 156: (0, 6, 17, 8, 16, 7, 6, 6, 28, 5, 14, 0)
s = 157: (0, 6, 19, 12, 30, 5, 7, 8, 25, 4, 11, 0)
s = 158: (0, 5, 12, 9, 26, 5, 9, 5, 29, 6, 15, 0)
s = 159: (0, 7, 17, 14, 18, 6, 8, 7, 23, 3, 8, 0)
s = 160: (0, 4, 18, 9, 14, 5, 12, 7, 28, 3, 10, 0)
s = 161: (0, 4, 12, 8, 32, 7, 8, 5, 21, 4, 11, 0)
s = 162: (0, 7, 10, 10, 18, 5, 12, 11, 17, 4, 11, 0)
s = 163: (0, 6, 18, 15, 18, 6, 8, 10, 34, 5, 9, 0)
s = 164: (0, 4, 12, 12, 23, 7, 6, 10, 13, 3, 14, 0)
s = 165: (0, 5, 10, 9, 20, 7, 9, 10, 20, 3, 8, 0)
s = 166: (0, 6, 20, 9, 31, 6, 8, 10, 25, 4, 7, 0)
s = 167: (0, 4, 22, 8, 20, 5, 11, 13, 36, 4, 9, 0)
s = 168: (0, 9, 16, 11, 20, 8, 12, 11, 15, 3, 13, 0)
s = 169: (0, 5, 18, 12, 26, 4, 6, 6, 37, 5, 11, 0)
s = 170: (0, 8, 14, 9, 21, 7, 7, 13, 35, 4, 15, 0)
s = 171: (0, 5, 10, 13, 27, 6, 11, 5, 33, 3, 12, 0)
s = 172: (0, 7, 8, 7, 13, 4, 9, 8, 30, 5, 14, 0)
s = 173: (0, 8, 8, 12, 20, 4, 7, 9, 16, 5, 12, 0)
s = 174: (0, 6, 12, 15, 15, 7, 6, 12, 27, 6, 7, 0)
s = 175: (0, 9, 12, 18, 29, 7, 13, 9, 29, 4, 15, 0)
s = 176: (0, 7, 20, 15, 31, 5, 5, 12, 26, 3, 7, 0)
s = 177: (0, 8, 11, 10, 22, 6, 10, 7, 33, 7, 13, 0)
s = 178: (0, 4, 18, 8, 17, 10, 10, 13, 16, 4, 8, 0)
s = 179: (0, 6, 21, 10, 17, 5, 6, 14, 21, 5, 6, 0)
s = 180: (0, 8, 26, 7, 22, 5, 10, 7, 27, 6, 12, 0)
s = 181: (0, 7, 14, 11, 30, 7, 7, 9, 22, 5, 12, 0)
s = 182: (0, 6, 10, 10, 21, 7, 5, 7, 22, 5, 8, 0)
s = 183: (0, 5, 22, 8, 29, 5, 6, 18, 27, 5, 9, 0)
s = 184: (0, 11, 10, 7, 26, 5, 14, 10, 22, 4, 7, 0)
s = 185: (0, 9, 11, 15, 17, 9, 10, 10, 24, 5, 8, 0)
s = 186: (0, 8, 16, 11, 19, 7, 6, 8, 25, 4, 9, 0)
s = 187: (0, 8, 13, 18, 14, 6, 7, 6, 22, 3, 7, 0)
s = 188: (0, 5, 15, 7, 25, 5, 7, 9, 30, 4, 11, 0)
s = 189: (0, 6, 12, 11, 28, 5, 8, 11, 18, 4, 14, 0)
s = 190: (0, 11, 11, 9, 23, 7, 9, 8, 29, 7, 8, 0)
s = 191: (0, 7, 10, 11, 16, 4, 6, 6, 29, 5, 8, 0)
s = 192: (0, 7, 20, 11, 17, 9, 10, 15, 17, 3, 9, 0)
s = 193: (0, 4, 14, 11, 29, 7, 7, 11, 15, 5, 7, 0)
s = 194: (0, 8, 14, 9, 23, 7, 9, 9, 31, 5, 11, 0)
s = 195: (0, 5, 16, 9, 12, 6, 7, 11, 17, 5, 11, 0)
s = 196: (0, 7, 17, 11, 19, 5, 9, 7, 20, 4, 9, 0)
s = 197: (0, 6, 12, 9, 35, 7, 7, 8, 39, 3, 12, 0)
s = 198: (0, 7, 11, 6, 27, 6, 10, 7, 33, 3, 8, 0)
s = 199: (0, 6, 11, 11, 20, 6, 6, 13, 16, 4, 11, 0)
s = 200: (0, 9, 13, 12, 24, 7, 5, 11, 32, 5, 12, 0)
------------------------------------------------------------------------
RESOURCE k = 2
s = 1: (0, 18, 13, 15, 26, 39, 19, 9, 30, 17, 85, 0)
s = 2: (0, 43, 15, 21, 29, 29, 15, 9, 16, 11, 98, 0)
s = 3: (0, 36, 13, 16, 13, 34, 14, 12, 22, 18, 92, 0)
s = 4: (0, 34, 22, 23, 19, 38, 10, 10, 27, 18, 49, 0)
s = 5: (0, 27, 12, 24, 30, 35, 13, 11, 24, 13, 85, 0)
s = 6: (0, 40, 10, 22, 16, 21, 9, 12, 20, 15, 83, 0)
s = 7: (0, 21, 17, 19, 29, 37, 13, 11, 27, 13, 101, 0)
s = 8: (0, 34, 17, 19, 19, 20, 7, 13, 13, 14, 77, 0)
s = 9: (0, 30, 13, 22, 15, 21, 21, 14, 25, 11, 84, 0)
s = 10: (0, 24, 9, 31, 15, 35, 12, 8, 19, 9, 44, 0)
s = 11: (0, 20, 12, 21, 12, 30, 21, 13, 20, 11, 61, 0)
s = 12: (0, 52, 16, 14, 27, 45, 8, 14, 18, 22, 64, 0)
s = 13: (0, 39, 16, 15, 27, 31, 18, 13, 39, 13, 45, 0)
s = 14: (0, 25, 14, 28, 29, 47, 10, 15, 18, 19, 65, 0)
s = 15: (0, 23, 18, 12, 16, 21, 13, 12, 15, 8, 97, 0)
s = 16: (0, 38, 18, 22, 19, 39, 10, 12, 28, 17, 59, 0)
s = 17: (0, 23, 11, 14, 21, 28, 18, 10, 14, 20, 64, 0)
s = 18: (0, 31, 16, 19, 17, 22, 12, 13, 23, 21, 93, 0)
s = 19: (0, 23, 16, 30, 20, 25, 12, 8, 21, 9, 111, 0)
s = 20: (0, 30, 25, 12, 21, 34, 12, 18, 18, 22, 83, 0)
s = 21: (0, 52, 10, 20, 15, 23, 11, 12, 21, 16, 68, 0)
s = 22: (0, 29, 16, 18, 20, 28, 13, 13, 23, 12, 111, 0)
s = 23: (0, 33, 18, 19, 29, 27, 10, 9, 19, 13, 74, 0)
s = 24: (0, 31, 13, 21, 22, 35, 12, 9, 13, 12, 105, 0)
s = 25: (0, 50, 13, 19, 16, 26, 15, 12, 26, 12, 42, 0)
s = 26: (0, 18, 20, 12, 15, 26, 11, 8, 19, 9, 54, 0)
s = 27: (0, 23, 24, 23, 25, 21, 19, 11, 17, 17, 46, 0)
s = 28: (0, 30, 13, 14, 23, 27, 13, 11, 16, 13, 51, 0)
s = 29: (0, 27, 15, 25, 20, 33, 11, 18, 21, 11, 63, 0)
s = 30: (0, 29, 11, 13, 22, 35, 15, 16, 20, 10, 45, 0)
s = 31: (0, 34, 19, 23, 21, 30, 17, 7, 15, 15, 51, 0)
s = 32: (0, 45, 16, 25, 24, 23, 18, 14, 17, 10, 99, 0)
s = 33: (0, 23, 19, 17, 24, 38, 15, 15, 21, 15, 60, 0)
s = 34: (0, 44, 12, 26, 21, 30, 20, 10, 18, 8, 44, 0)
s = 35: (0, 29, 19, 16, 27, 34, 9, 10, 15, 15, 84, 0)
s = 36: (0, 37, 16, 29, 18, 22, 15, 16, 20, 15, 73, 0)
s = 37: (0, 30, 20, 21, 28, 19, 12, 13, 23, 14, 53, 0)
s = 38: (0, 25, 15, 21, 18, 18, 10, 9, 16, 15, 70, 0)
s = 39: (0, 20, 11, 12, 23, 28, 8, 16, 12, 15, 46, 0)
s = 40: (0, 39, 22, 20, 33, 19, 18, 13, 29, 11, 47, 0)
s = 41: (0, 38, 13, 29, 19, 21, 10, 16, 21, 13, 79, 0)
s = 42: (0, 34, 23, 29, 17, 25, 14, 11, 14, 15, 120, 0)
s = 43: (0, 42, 14, 17, 16, 34, 15, 13, 13, 9, 88, 0)
s = 44: (0, 24, 11, 14, 20, 28, 9, 15, 15, 15, 42, 0)
s = 45: (0, 39, 26, 28, 19, 36, 9, 11, 17, 21, 69, 0)
s = 46: (0, 22, 18, 20, 24, 29, 14, 17, 29, 10, 40, 0)
s = 47: (0, 43, 18, 13, 17, 28, 16, 14, 16, 11, 71, 0)
s = 48: (0, 33, 22, 21, 28, 34, 8, 17, 23, 10, 74, 0)
s = 49: (0, 31, 17, 17, 33, 23, 10, 14, 22, 10, 74, 0)
s = 50: (0, 39, 12, 18, 32, 44, 16, 14, 29, 11, 39, 0)
s = 51: (0, 50, 13, 21, 24, 24, 17, 8, 16, 14, 88, 0)
s = 52: (0, 33, 11, 27, 25, 33, 9, 11, 32, 17, 70, 0)
s = 53: (0, 44, 16, 26, 16, 16, 17, 12, 18, 10, 84, 0)
s = 54: (0, 25, 12, 18, 18, 36, 11, 13, 21, 12, 112, 0)
s = 55: (0, 45, 20, 16, 18, 30, 15, 14, 35, 10, 60, 0)
s = 56: (0, 26, 21, 21, 23, 18, 8, 9, 14, 9, 48, 0)
s = 57: (0, 27, 14, 12, 16, 25, 15, 12, 18, 11, 103, 0)
s = 58: (0, 29, 18, 23, 12, 21, 14, 12, 18, 10, 61, 0)
s = 59: (0, 32, 11, 16, 21, 20, 10, 11, 32, 21, 87, 0)
s = 60: (0, 31, 14, 12, 17, 39, 8, 12, 15, 12, 53, 0)
s = 61: (0, 47, 18, 15, 29, 47, 11, 13, 30, 12, 44, 0)
s = 62: (0, 25, 12, 14, 13, 25, 13, 15, 26, 10, 50, 0)
s = 63: (0, 34, 14, 21, 17, 24, 13, 10, 28, 23, 62, 0)
s = 64: (0, 38, 17, 22, 23, 35, 14, 14, 28, 17, 85, 0)
s = 65: (0, 26, 11, 19, 27, 39, 8, 10, 23, 16, 80, 0)
s = 66: (0, 31, 21, 22, 24, 23, 10, 12, 18, 16, 54, 0)
s = 67: (0, 25, 15, 26, 23, 32, 15, 11, 12, 17, 115, 0)
s = 68: (0, 43, 18, 18, 27, 34, 10, 8, 16, 9, 52, 0)
s = 69: (0, 34, 27, 32, 23, 26, 21, 10, 23, 12, 130, 0)
s = 70: (0, 28, 22, 18, 20, 26, 16, 12, 19, 18, 110, 0)
s = 71: (0, 30, 11, 17, 23, 30, 14, 7, 17, 9, 66, 0)
s = 72: (0, 30, 17, 20, 19, 45, 11, 9, 26, 14, 107, 0)
s = 73: (0, 43, 14, 17, 22, 23, 18, 12, 23, 11, 55, 0)
s = 74: (0, 25, 22, 14, 34, 19, 8, 12, 15, 14, 81, 0)
s = 75: (0, 38, 27, 18, 31, 57, 14, 15, 13, 11, 62, 0)
s = 76: (0, 23, 18, 22, 29, 18, 21, 9, 15, 10, 116, 0)
s = 77: (0, 35, 9, 19, 22, 34, 15, 14, 25, 12, 64, 0)
s = 78: (0, 18, 23, 27, 18, 31, 11, 10, 32, 11, 49, 0)
s = 79: (0, 18, 21, 15, 15, 36, 14, 14, 32, 11, 52, 0)
s = 80: (0, 25, 11, 16, 21, 26, 8, 16, 29, 10, 47, 0)
s = 81: (0, 23, 15, 20, 26, 40, 11, 21, 19, 12, 68, 0)
s = 82: (0, 36, 23, 17, 22, 38, 17, 22, 26, 9, 64, 0)
s = 83: (0, 23, 14, 17, 15, 20, 10, 9, 28, 19, 65, 0)
s = 84: (0, 36, 15, 12, 18, 29, 12, 17, 22, 15, 88, 0)
s = 85: (0, 41, 16, 13, 28, 19, 9, 13, 18, 12, 86, 0)
s = 86: (0, 52, 13, 31, 27, 26, 8, 9, 16, 14, 55, 0)
s = 87: (0, 41, 13, 24, 20, 34, 10, 18, 12, 9, 89, 0)
s = 88: (0, 24, 15, 27, 18, 35, 17, 16, 18, 8, 81, 0)
s = 89: (0, 33, 14, 21, 21, 29, 8, 15, 15, 17, 133, 0)
s = 90: (0, 32, 19, 28, 22, 26, 15, 17, 30, 20, 57, 0)
s = 91: (0, 30, 14, 19, 26, 17, 13, 11, 16, 14, 97, 0)
s = 92: (0, 18, 26, 14, 18, 44, 14, 24, 24, 12, 61, 0)
s = 93: (0, 45, 18, 33, 13, 31, 9, 10, 21, 15, 53, 0)
s = 94: (0, 40, 18, 19, 13, 38, 8, 10, 27, 9, 63, 0)
s = 95: (0, 24, 15, 14, 24, 34, 13, 8, 24, 21, 74, 0)
s = 96: (0, 38, 11, 11, 28, 38, 13, 13, 25, 15, 69, 0)
s = 97: (0, 41, 19, 22, 31, 30, 16, 16, 19, 12, 68, 0)
s = 98: (0, 55, 13, 24, 27, 38, 20, 12, 20, 11, 62, 0)
s = 99: (0, 26, 16, 20, 31, 32, 14, 12, 14, 12, 88, 0)
s = 100: (0, 31, 12, 32, 15, 22, 12, 7, 25, 18, 71, 0)
s = 101: (0, 22, 11, 31, 28, 29, 11, 14, 19, 14, 93, 0)
s = 102: (0, 47, 13, 13, 26, 31, 10, 16, 15, 22, 69, 0)
s = 103: (0, 17, 12, 25, 19, 34, 20, 15, 15, 16, 53, 0)
s = 104: (0, 27, 14, 24, 14, 25, 13, 9, 33, 16, 48, 0)
s = 105: (0, 43, 12, 24, 23, 26, 10, 10, 13, 12, 77, 0)
s = 106: (0, 24, 12, 12, 35, 24, 10, 11, 28, 19, 84, 0)
s = 107: (0, 27, 10, 19, 17, 21, 8, 10, 25, 24, 66, 0)
s = 108: (0, 24, 22, 32, 14, 34, 8, 9, 18, 11, 87, 0)
s = 109: (0, 28, 13, 14, 20, 24, 10, 15, 15, 8, 85, 0)
s = 110: (0, 26, 17, 21, 22, 18, 7, 8, 25, 15, 50, 0)
s = 111: (0, 21, 17, 18, 22, 45, 8, 18, 15, 14, 101, 0)
s = 112: (0, 58, 25, 20, 29, 22, 13, 9, 29, 12, 97, 0)
s = 113: (0, 40, 15, 11, 16, 27, 13, 12, 14, 9, 55, 0)
s = 114: (0, 33, 11, 14, 25, 54, 14, 10, 22, 12, 108, 0)
s = 115: (0, 24, 15, 21, 20, 29, 9, 10, 25, 21, 94, 0)
s = 116: (0, 24, 15, 15, 21, 26, 10, 8, 17, 14, 55, 0)
s = 117: (0, 24, 15, 15, 16, 27, 10, 12, 20, 14, 62, 0)
s = 118: (0, 25, 20, 18, 19, 33, 12, 13, 21, 17, 79, 0)
s = 119: (0, 18, 12, 20, 17, 19, 16, 8, 16, 16, 55, 0)
s = 120: (0, 47, 15, 16, 24, 22, 15, 15, 29, 17, 86, 0)
s = 121: (0, 34, 21, 24, 24, 25, 19, 12, 18, 12, 93, 0)
s = 122: (0, 25, 15, 26, 23, 22, 8, 9, 24, 15, 62, 0)
s = 123: (0, 36, 16, 18, 16, 43, 15, 10, 24, 13, 123, 0)
s = 124: (0, 29, 9, 19, 17, 36, 10, 11, 36, 22, 60, 0)
s = 125: (0, 41, 26, 16, 30, 27, 17, 17, 29, 12, 78, 0)
s = 126: (0, 29, 12, 26, 20, 24, 17, 14, 15, 12, 47, 0)
s = 127: (0, 21, 12, 20, 20, 41, 9, 10, 19, 16, 57, 0)
s = 128: (0, 36, 22, 16, 29, 35, 9, 7, 21, 8, 70, 0)
s = 129: (0, 37, 11, 12, 22, 29, 11, 14, 26, 10, 105, 0)
s = 130: (0, 23, 20, 24, 13, 24, 8, 9, 20, 13, 113, 0)
s = 131: (0, 44, 12, 25, 16, 31, 13, 11, 14, 11, 60, 0)
s = 132: (0, 34, 19, 24, 20, 38, 7, 11, 18, 15, 88, 0)
s = 133: (0, 30, 20, 27, 20, 31, 16, 12, 37, 11, 47, 0)
s = 134: (0, 33, 15, 31, 26, 39, 8, 15, 24, 14, 44, 0)
s = 135: (0, 34, 20, 15, 22, 33, 12, 10, 25, 17, 98, 0)
s = 136: (0, 32, 10, 16, 30, 33, 8, 7, 23, 22, 47, 0)
s = 137: (0, 20, 19, 19, 25, 23, 16, 7, 17, 16, 89, 0)
s = 138: (0, 37, 17, 17, 15, 21, 13, 18, 24, 25, 82, 0)
s = 139: (0, 33, 12, 17, 33, 36, 15, 23, 30, 18, 87, 0)
s = 140: (0, 30, 23, 27, 23, 37, 15, 12, 22, 22, 106, 0)
s = 141: (0, 27, 13, 19, 22, 44, 11, 17, 20, 8, 75, 0)
s = 142: (0, 34, 11, 23, 23, 21, 12, 11, 33, 19, 58, 0)
s = 143: (0, 29, 16, 40, 13, 23, 12, 15, 26, 19, 72, 0)
s = 144: (0, 35, 15, 29, 31, 23, 11, 12, 26, 12, 60, 0)
s = 145: (0, 23, 19, 15, 25, 34, 8, 10, 17, 13, 58, 0)
s = 146: (0, 48, 19, 26, 12, 17, 10, 12, 12, 15, 46, 0)
s = 147: (0, 31, 18, 24, 15, 23, 12, 10, 27, 19, 69, 0)
s = 148: (0, 27, 16, 16, 29, 22, 8, 10, 23, 9, 71, 0)
s = 149: (0, 34, 9, 15, 16, 30, 15, 8, 20, 16, 42, 0)
s = 150: (0, 42, 20, 22, 20, 30, 12, 14, 15, 15, 68, 0)
s = 151: (0, 26, 14, 27, 15, 21, 13, 19, 21, 18, 75, 0)
s = 152: (0, 36, 21, 25, 21, 21, 16, 14, 26, 9, 57, 0)
s = 153: (0, 24, 21, 21, 13, 30, 13, 12, 25, 11, 47, 0)
s = 154: (0, 27, 21, 32, 27, 23, 12, 16, 16, 16, 101, 0)
s = 155: (0, 48, 21, 12, 27, 23, 12, 16, 20, 18, 69, 0)
s = 156: (0, 27, 19, 15, 16, 33, 9, 8, 24, 16, 96, 0)
s = 157: (0, 30, 21, 24, 30, 25, 10, 11, 22, 14, 71, 0)
s = 158: (0, 24, 14, 17, 26, 23, 13, 7, 25, 21, 102, 0)
s = 159: (0, 33, 19, 27, 18, 28, 12, 9, 20, 8, 51, 0)
s = 160: (0, 17, 20, 18, 14, 24, 18, 9, 25, 10, 65, 0)
s = 161: (0, 19, 14, 15, 32, 35, 12, 7, 18, 11, 71, 0)
s = 162: (0, 35, 12, 19, 18, 22, 18, 15, 15, 14, 71, 0)
s = 163: (0, 30, 20, 29, 18, 29, 12, 13, 30, 17, 61, 0)
s = 164: (0, 20, 13, 24, 23, 32, 9, 14, 11, 10, 93, 0)
s = 165: (0, 22, 11, 18, 20, 35, 14, 13, 18, 11, 55, 0)
s = 166: (0, 28, 23, 17, 31, 29, 12, 13, 22, 13, 49, 0)
s = 167: (0, 20, 25, 16, 20, 25, 17, 18, 31, 14, 61, 0)
s = 168: (0, 44, 18, 21, 20, 40, 18, 14, 13, 11, 88, 0)
s = 169: (0, 22, 21, 23, 26, 18, 9, 7, 32, 18, 77, 0)
s = 170: (0, 37, 15, 17, 21, 34, 10, 17, 31, 14, 99, 0)
s = 171: (0, 22, 12, 25, 27, 26, 16, 7, 29, 11, 83, 0)
s = 172: (0, 33, 9, 13, 13, 18, 13, 10, 26, 16, 97, 0)
s = 173: (0, 38, 9, 24, 20, 16, 10, 11, 14, 16, 80, 0)
s = 174: (0, 26, 14, 29, 15, 34, 9, 16, 24, 19, 49, 0)
s = 175: (0, 42, 14, 35, 29, 35, 19, 12, 26, 13, 100, 0)
s = 176: (0, 33, 22, 30, 31, 22, 8, 16, 23, 10, 46, 0)
s = 177: (0, 36, 12, 19, 22, 28, 15, 9, 29, 23, 91, 0)
s = 178: (0, 19, 20, 15, 17, 48, 14, 17, 14, 11, 56, 0)
s = 179: (0, 29, 24, 19, 17, 21, 8, 19, 19, 15, 42, 0)
s = 180: (0, 37, 29, 13, 22, 23, 14, 10, 24, 20, 84, 0)
s = 181: (0, 33, 16, 22, 30, 34, 11, 12, 19, 17, 81, 0)
s = 182: (0, 27, 12, 19, 21, 32, 7, 9, 20, 17, 52, 0)
s = 183: (0, 24, 25, 16, 29, 25, 9, 23, 24, 16, 57, 0)
s = 184: (0, 55, 12, 14, 26, 21, 21, 13, 19, 13, 45, 0)
s = 185: (0, 41, 13, 30, 17, 43, 15, 13, 21, 15, 55, 0)
s = 186: (0, 36, 18, 21, 19, 31, 9, 10, 22, 12, 61, 0)
s = 187: (0, 38, 15, 35, 14, 30, 11, 8, 19, 11, 44, 0)
s = 188: (0, 22, 17, 14, 25, 23, 11, 12, 26, 13, 73, 0)
s = 189: (0, 28, 13, 21, 28, 23, 11, 14, 16, 14, 97, 0)
s = 190: (0, 54, 12, 18, 23, 33, 14, 11, 26, 23, 50, 0)
s = 191: (0, 32, 11, 21, 16, 17, 9, 8, 26, 15, 50, 0)
s = 192: (0, 35, 22, 22, 17, 42, 15, 20, 15, 9, 63, 0)
s = 193: (0, 20, 16, 22, 29, 33, 10, 14, 13, 17, 46, 0)
s = 194: (0, 36, 16, 17, 23, 34, 13, 11, 28, 16, 77, 0)
s = 195: (0, 24, 18, 18, 12, 29, 11, 14, 15, 16, 72, 0)
s = 196: (0, 34, 19, 21, 19, 22, 13, 9, 17, 14, 60, 0)
s = 197: (0, 29, 14, 17, 35, 34, 10, 11, 34, 9, 81, 0)
s = 198: (0, 31, 13, 12, 27, 29, 14, 10, 29, 9, 51, 0)
s = 199: (0, 28, 13, 21, 20, 30, 8, 18, 14, 14, 71, 0)
s = 200: (0, 43, 15, 23, 24, 33, 8, 14, 28, 15, 78, 0)
************************************************************************
ES/LS-VALUES:
jobnr.   ES(i)    LS(i)
------------------------------------------------------------------------
  0        0        0
  1        0       49
  2        0       54
  3        0       64
  4        4       53
  5        9       58
  6        4       64
  7       15       64
  8        4       70
  9        9       74
 10       17       66
 11       26       76
************************************************************************
BIG-M-VALUES:
M1 = 36, M2 = 156
************************************************************************
